data/lp_files/pEFS/103_3.lp
\ Model foo
\ LP format - for model browsing. Use MPS format to capture full model detail.
Minimize
  z
Subject To
 allocateEach[1]: x[1,1] + x[2,1] + x[3,1] + x[4,1] + x[5,1] + x[6,1] = 1
 allocateEach[2]: x[1,2] + x[2,2] + x[3,2] + x[4,2] + x[5,2] + x[6,2] = 1
 allocateEach[3]: x[1,3] + x[2,3] + x[3,3] + x[4,3] + x[5,3] + x[6,3] = 1
 allocateAllCash: cashProportion[1] + cashProportion[2] + cashProportion[3]
   + cashProportion[4] + cashProportion[5] + cashProportion[6] = 1
 findWorstP[1,2]: z + 0.1090512540894221 cashProportion[1]
   - 0.1090512540894221 cashProportion[2] + 0.5344056706652127 x[1,1]
   + 0.1706652126499455 x[1,2] + 0.1858778625954199 x[1,3]
   - 0.5344056706652127 x[2,1] - 0.1706652126499455 x[2,2]
   - 0.1858778625954199 x[2,3] >= 0
 findWorstP[1,3]: z + 0.1090512540894221 cashProportion[1]
   - 0.1090512540894221 cashProportion[3] + 0.5344056706652127 x[1,1]
   + 0.1706652126499455 x[1,2] + 0.1858778625954199 x[1,3]
   - 0.5344056706652127 x[3,1] - 0.1706652126499455 x[3,2]
   - 0.1858778625954199 x[3,3] >= 0
 findWorstP[1,4]: z + 0.1090512540894221 cashProportion[1]
   - 0.1090512540894221 cashProportion[4] + 0.5344056706652127 x[1,1]
   + 0.1706652126499455 x[1,2] + 0.1858778625954199 x[1,3]
   - 0.5344056706652127 x[4,1] - 0.1706652126499455 x[4,2]
   - 0.1858778625954199 x[4,3] >= 0
 findWorstP[1,5]: z + 0.1090512540894221 cashProportion[1]
   - 0.1090512540894221 cashProportion[5] + 0.5344056706652127 x[1,1]
   + 0.1706652126499455 x[1,2] + 0.1858778625954199 x[1,3]
   - 0.5344056706652127 x[5,1] - 0.1706652126499455 x[5,2]
   - 0.1858778625954199 x[5,3] >= 0
 findWorstP[1,6]: z + 0.1090512540894221 cashProportion[1]
   - 0.1090512540894221 cashProportion[6] + 0.5344056706652127 x[1,1]
   + 0.1706652126499455 x[1,2] + 0.1858778625954199 x[1,3]
   - 0.5344056706652127 x[6,1] - 0.1706652126499455 x[6,2]
   - 0.1858778625954199 x[6,3] >= 0
 findWorstP[2,1]: z - 0.0664451827242525 cashProportion[1]
   + 0.0664451827242525 cashProportion[2] - 0.3103322259136213 x[1,1]
   - 0.3295681063122923 x[1,2] - 0.2936544850498339 x[1,3]
   + 0.3103322259136213 x[2,1] + 0.3295681063122923 x[2,2]
   + 0.2936544850498339 x[2,3] >= 0
 findWorstP[2,3]: z + 0.0664451827242525 cashProportion[2]
   - 0.0664451827242525 cashProportion[3] + 0.3103322259136213 x[2,1]
   + 0.3295681063122923 x[2,2] + 0.2936544850498339 x[2,3]
   - 0.3103322259136213 x[3,1] - 0.3295681063122923 x[3,2]
   - 0.2936544850498339 x[3,3] >= 0
 findWorstP[2,4]: z + 0.0664451827242525 cashProportion[2]
   - 0.0664451827242525 cashProportion[4] + 0.3103322259136213 x[2,1]
   + 0.3295681063122923 x[2,2] + 0.2936544850498339 x[2,3]
   - 0.3103322259136213 x[4,1] - 0.3295681063122923 x[4,2]
   - 0.2936544850498339 x[4,3] >= 0
 findWorstP[2,5]: z + 0.0664451827242525 cashProportion[2]
   - 0.0664451827242525 cashProportion[5] + 0.3103322259136213 x[2,1]
   + 0.3295681063122923 x[2,2] + 0.2936544850498339 x[2,3]
   - 0.3103322259136213 x[5,1] - 0.3295681063122923 x[5,2]
   - 0.2936544850498339 x[5,3] >= 0
 findWorstP[2,6]: z + 0.0664451827242525 cashProportion[2]
   - 0.0664451827242525 cashProportion[6] + 0.3103322259136213 x[2,1]
   + 0.3295681063122923 x[2,2] + 0.2936544850498339 x[2,3]
   - 0.3103322259136213 x[6,1] - 0.3295681063122923 x[6,2]
   - 0.2936544850498339 x[6,3] >= 0
 findWorstP[3,1]: z - 0.118427285646613 cashProportion[1]
   + 0.118427285646613 cashProportion[3] - 0.2758171482709616 x[1,1]
   - 0.296186641402179 x[1,2] - 0.3095689246802463 x[1,3]
   + 0.2758171482709616 x[3,1] + 0.296186641402179 x[3,2]
   + 0.3095689246802463 x[3,3] >= 0
 findWorstP[3,2]: z - 0.118427285646613 cashProportion[2]
   + 0.118427285646613 cashProportion[3] - 0.2758171482709616 x[2,1]
   - 0.296186641402179 x[2,2] - 0.3095689246802463 x[2,3]
   + 0.2758171482709616 x[3,1] + 0.296186641402179 x[3,2]
   + 0.3095689246802463 x[3,3] >= 0
 findWorstP[3,4]: z + 0.118427285646613 cashProportion[3]
   - 0.118427285646613 cashProportion[4] + 0.2758171482709616 x[3,1]
   + 0.296186641402179 x[3,2] + 0.3095689246802463 x[3,3]
   - 0.2758171482709616 x[4,1] - 0.296186641402179 x[4,2]
   - 0.3095689246802463 x[4,3] >= 0
 findWorstP[3,5]: z + 0.118427285646613 cashProportion[3]
   - 0.118427285646613 cashProportion[5] + 0.2758171482709616 x[3,1]
   + 0.296186641402179 x[3,2] + 0.3095689246802463 x[3,3]
   - 0.2758171482709616 x[5,1] - 0.296186641402179 x[5,2]
   - 0.3095689246802463 x[5,3] >= 0
 findWorstP[3,6]: z + 0.118427285646613 cashProportion[3]
   - 0.118427285646613 cashProportion[6] + 0.2758171482709616 x[3,1]
   + 0.296186641402179 x[3,2] + 0.3095689246802463 x[3,3]
   - 0.2758171482709616 x[6,1] - 0.296186641402179 x[6,2]
   - 0.3095689246802463 x[6,3] >= 0
 findWorstP[4,1]: z - 0.1476668635558181 cashProportion[1]
   + 0.1476668635558181 cashProportion[4] - 0.5234051978735972 x[1,1]
   - 0.1176166568222091 x[1,2] - 0.2113112817483757 x[1,3]
   + 0.5234051978735972 x[4,1] + 0.1176166568222091 x[4,2]
   + 0.2113112817483757 x[4,3] >= 0
 findWorstP[4,2]: z - 0.1476668635558181 cashProportion[2]
   + 0.1476668635558181 cashProportion[4] - 0.5234051978735972 x[2,1]
   - 0.1176166568222091 x[2,2] - 0.2113112817483757 x[2,3]
   + 0.5234051978735972 x[4,1] + 0.1176166568222091 x[4,2]
   + 0.2113112817483757 x[4,3] >= 0
 findWorstP[4,3]: z - 0.1476668635558181 cashProportion[3]
   + 0.1476668635558181 cashProportion[4] - 0.5234051978735972 x[3,1]
   - 0.1176166568222091 x[3,2] - 0.2113112817483757 x[3,3]
   + 0.5234051978735972 x[4,1] + 0.1176166568222091 x[4,2]
   + 0.2113112817483757 x[4,3] >= 0
 findWorstP[4,5]: z + 0.1476668635558181 cashProportion[4]
   - 0.1476668635558181 cashProportion[5] + 0.5234051978735972 x[4,1]
   + 0.1176166568222091 x[4,2] + 0.2113112817483757 x[4,3]
   - 0.5234051978735972 x[5,1] - 0.1176166568222091 x[5,2]
   - 0.2113112817483757 x[5,3] >= 0
 findWorstP[4,6]: z + 0.1476668635558181 cashProportion[4]
   - 0.1476668635558181 cashProportion[6] + 0.5234051978735972 x[4,1]
   + 0.1176166568222091 x[4,2] + 0.2113112817483757 x[4,3]
   - 0.5234051978735972 x[6,1] - 0.1176166568222091 x[6,2]
   - 0.2113112817483757 x[6,3] >= 0
 findWorstP[5,1]: z - 0.0964041260965969 cashProportion[1]
   + 0.0964041260965969 cashProportion[5] - 0.3318712040875349 x[1,1]
   - 0.0913911115395739 x[1,2] - 0.4803335582762942 x[1,3]
   + 0.3318712040875349 x[5,1] + 0.0913911115395739 x[5,2]
   + 0.4803335582762942 x[5,3] >= 0
 findWorstP[5,2]: z - 0.0964041260965969 cashProportion[2]
   + 0.0964041260965969 cashProportion[5] - 0.3318712040875349 x[2,1]
   - 0.0913911115395739 x[2,2] - 0.4803335582762942 x[2,3]
   + 0.3318712040875349 x[5,1] + 0.0913911115395739 x[5,2]
   + 0.4803335582762942 x[5,3] >= 0
 findWorstP[5,3]: z - 0.0964041260965969 cashProportion[3]
   + 0.0964041260965969 cashProportion[5] - 0.3318712040875349 x[3,1]
   - 0.0913911115395739 x[3,2] - 0.4803335582762942 x[3,3]
   + 0.3318712040875349 x[5,1] + 0.0913911115395739 x[5,2]
   + 0.4803335582762942 x[5,3] >= 0
 findWorstP[5,4]: z - 0.0964041260965969 cashProportion[4]
   + 0.0964041260965969 cashProportion[5] - 0.3318712040875349 x[4,1]
   - 0.0913911115395739 x[4,2] - 0.4803335582762942 x[4,3]
   + 0.3318712040875349 x[5,1] + 0.0913911115395739 x[5,2]
   + 0.4803335582762942 x[5,3] >= 0
 findWorstP[5,6]: z + 0.0964041260965969 cashProportion[5]
   - 0.0964041260965969 cashProportion[6] + 0.3318712040875349 x[5,1]
   + 0.0913911115395739 x[5,2] + 0.4803335582762942 x[5,3]
   - 0.3318712040875349 x[6,1] - 0.0913911115395739 x[6,2]
   - 0.4803335582762942 x[6,3] >= 0
 findWorstP[6,1]: z - 0.1113523745893881 cashProportion[1]
   + 0.1113523745893881 cashProportion[6] - 0.2517120427593119 x[1,1]
   - 0.229664272590613 x[1,2] - 0.4072713100606871 x[1,3]
   + 0.2517120427593119 x[6,1] + 0.229664272590613 x[6,2]
   + 0.4072713100606871 x[6,3] >= 0
 findWorstP[6,2]: z - 0.1113523745893881 cashProportion[2]
   + 0.1113523745893881 cashProportion[6] - 0.2517120427593119 x[2,1]
   - 0.229664272590613 x[2,2] - 0.4072713100606871 x[2,3]
   + 0.2517120427593119 x[6,1] + 0.229664272590613 x[6,2]
   + 0.4072713100606871 x[6,3] >= 0
 findWorstP[6,3]: z - 0.1113523745893881 cashProportion[3]
   + 0.1113523745893881 cashProportion[6] - 0.2517120427593119 x[3,1]
   - 0.229664272590613 x[3,2] - 0.4072713100606871 x[3,3]
   + 0.2517120427593119 x[6,1] + 0.229664272590613 x[6,2]
   + 0.4072713100606871 x[6,3] >= 0
 findWorstP[6,4]: z - 0.1113523745893881 cashProportion[4]
   + 0.1113523745893881 cashProportion[6] - 0.2517120427593119 x[4,1]
   - 0.229664272590613 x[4,2] - 0.4072713100606871 x[4,3]
   + 0.2517120427593119 x[6,1] + 0.229664272590613 x[6,2]
   + 0.4072713100606871 x[6,3] >= 0
 findWorstP[6,5]: z - 0.1113523745893881 cashProportion[5]
   + 0.1113523745893881 cashProportion[6] - 0.2517120427593119 x[5,1]
   - 0.229664272590613 x[5,2] - 0.4072713100606871 x[5,3]
   + 0.2517120427593119 x[6,1] + 0.229664272590613 x[6,2]
   + 0.4072713100606871 x[6,3] >= 0
Bounds
 z <= 1
 -infinity <= cashProportion[1] <= 1
 -infinity <= cashProportion[2] <= 1
 -infinity <= cashProportion[3] <= 1
 -infinity <= cashProportion[4] <= 1
 -infinity <= cashProportion[5] <= 1
 -infinity <= cashProportion[6] <= 1
Binaries
 x[1,1] x[1,2] x[1,3] x[2,1] x[2,2] x[2,3] x[3,1] x[3,2] x[3,3] x[4,1]
 x[4,2] x[4,3] x[5,1] x[5,2] x[5,3] x[6,1] x[6,2] x[6,3]
End
