data/mps_files/pEFS/103_3.mps
NAME foo
ROWS
 N  OBJ
 E  allocateEach[1]
 E  allocateEach[2]
 E  allocateEach[3]
 E  allocateAllCash
 G  findWorstP[1,2]
 G  findWorstP[1,3]
 G  findWorstP[1,4]
 G  findWorstP[1,5]
 G  findWorstP[1,6]
 G  findWorstP[2,1]
 G  findWorstP[2,3]
 G  findWorstP[2,4]
 G  findWorstP[2,5]
 G  findWorstP[2,6]
 G  findWorstP[3,1]
 G  findWorstP[3,2]
 G  findWorstP[3,4]
 G  findWorstP[3,5]
 G  findWorstP[3,6]
 G  findWorstP[4,1]
 G  findWorstP[4,2]
 G  findWorstP[4,3]
 G  findWorstP[4,5]
 G  findWorstP[4,6]
 G  findWorstP[5,1]
 G  findWorstP[5,2]
 G  findWorstP[5,3]
 G  findWorstP[5,4]
 G  findWorstP[5,6]
 G  findWorstP[6,1]
 G  findWorstP[6,2]
 G  findWorstP[6,3]
 G  findWorstP[6,4]
 G  findWorstP[6,5]
COLUMNS
    z         OBJ       1
    z         findWorstP[1,2]  1
    z         findWorstP[1,3]  1
    z         findWorstP[1,4]  1
    z         findWorstP[1,5]  1
    z         findWorstP[1,6]  1
    z         findWorstP[2,1]  1
    z         findWorstP[2,3]  1
    z         findWorstP[2,4]  1
    z         findWorstP[2,5]  1
    z         findWorstP[2,6]  1
    z         findWorstP[3,1]  1
    z         findWorstP[3,2]  1
    z         findWorstP[3,4]  1
    z         findWorstP[3,5]  1
    z         findWorstP[3,6]  1
    z         findWorstP[4,1]  1
    z         findWorstP[4,2]  1
    z         findWorstP[4,3]  1
    z         findWorstP[4,5]  1
    z         findWorstP[4,6]  1
    z         findWorstP[5,1]  1
    z         findWorstP[5,2]  1
    z         findWorstP[5,3]  1
    z         findWorstP[5,4]  1
    z         findWorstP[5,6]  1
    z         findWorstP[6,1]  1
    z         findWorstP[6,2]  1
    z         findWorstP[6,3]  1
    z         findWorstP[6,4]  1
    z         findWorstP[6,5]  1
    cashProportion[1]  allocateAllCash  1
    cashProportion[1]  findWorstP[1,2]  1.0905125408942205e-01
    cashProportion[1]  findWorstP[1,3]  1.0905125408942205e-01
    cashProportion[1]  findWorstP[1,4]  1.0905125408942205e-01
    cashProportion[1]  findWorstP[1,5]  1.0905125408942205e-01
    cashProportion[1]  findWorstP[1,6]  1.0905125408942205e-01
    cashProportion[1]  findWorstP[2,1]  -6.6445182724252483e-02
    cashProportion[1]  findWorstP[3,1]  -1.1842728564661298e-01
    cashProportion[1]  findWorstP[4,1]  -1.4766686355581810e-01
    cashProportion[1]  findWorstP[5,1]  -9.6404126096596932e-02
    cashProportion[1]  findWorstP[6,1]  -1.1135237458938813e-01
    cashProportion[2]  allocateAllCash  1
    cashProportion[2]  findWorstP[1,2]  -1.0905125408942205e-01
    cashProportion[2]  findWorstP[2,1]  6.6445182724252483e-02
    cashProportion[2]  findWorstP[2,3]  6.6445182724252483e-02
    cashProportion[2]  findWorstP[2,4]  6.6445182724252483e-02
    cashProportion[2]  findWorstP[2,5]  6.6445182724252483e-02
    cashProportion[2]  findWorstP[2,6]  6.6445182724252483e-02
    cashProportion[2]  findWorstP[3,2]  -1.1842728564661298e-01
    cashProportion[2]  findWorstP[4,2]  -1.4766686355581810e-01
    cashProportion[2]  findWorstP[5,2]  -9.6404126096596932e-02
    cashProportion[2]  findWorstP[6,2]  -1.1135237458938813e-01
    cashProportion[3]  allocateAllCash  1
    cashProportion[3]  findWorstP[1,3]  -1.0905125408942205e-01
    cashProportion[3]  findWorstP[2,3]  -6.6445182724252483e-02
    cashProportion[3]  findWorstP[3,1]  1.1842728564661298e-01
    cashProportion[3]  findWorstP[3,2]  1.1842728564661298e-01
    cashProportion[3]  findWorstP[3,4]  1.1842728564661298e-01
    cashProportion[3]  findWorstP[3,5]  1.1842728564661298e-01
    cashProportion[3]  findWorstP[3,6]  1.1842728564661298e-01
    cashProportion[3]  findWorstP[4,3]  -1.4766686355581810e-01
    cashProportion[3]  findWorstP[5,3]  -9.6404126096596932e-02
    cashProportion[3]  findWorstP[6,3]  -1.1135237458938813e-01
    cashProportion[4]  allocateAllCash  1
    cashProportion[4]  findWorstP[1,4]  -1.0905125408942205e-01
    cashProportion[4]  findWorstP[2,4]  -6.6445182724252483e-02
    cashProportion[4]  findWorstP[3,4]  -1.1842728564661298e-01
    cashProportion[4]  findWorstP[4,1]  1.4766686355581810e-01
    cashProportion[4]  findWorstP[4,2]  1.4766686355581810e-01
    cashProportion[4]  findWorstP[4,3]  1.4766686355581810e-01
    cashProportion[4]  findWorstP[4,5]  1.4766686355581810e-01
    cashProportion[4]  findWorstP[4,6]  1.4766686355581810e-01
    cashProportion[4]  findWorstP[5,4]  -9.6404126096596932e-02
    cashProportion[4]  findWorstP[6,4]  -1.1135237458938813e-01
    cashProportion[5]  allocateAllCash  1
    cashProportion[5]  findWorstP[1,5]  -1.0905125408942205e-01
    cashProportion[5]  findWorstP[2,5]  -6.6445182724252483e-02
    cashProportion[5]  findWorstP[3,5]  -1.1842728564661298e-01
    cashProportion[5]  findWorstP[4,5]  -1.4766686355581810e-01
    cashProportion[5]  findWorstP[5,1]  9.6404126096596932e-02
    cashProportion[5]  findWorstP[5,2]  9.6404126096596932e-02
    cashProportion[5]  findWorstP[5,3]  9.6404126096596932e-02
    cashProportion[5]  findWorstP[5,4]  9.6404126096596932e-02
    cashProportion[5]  findWorstP[5,6]  9.6404126096596932e-02
    cashProportion[5]  findWorstP[6,5]  -1.1135237458938813e-01
    cashProportion[6]  allocateAllCash  1
    cashProportion[6]  findWorstP[1,6]  -1.0905125408942205e-01
    cashProportion[6]  findWorstP[2,6]  -6.6445182724252483e-02
    cashProportion[6]  findWorstP[3,6]  -1.1842728564661298e-01
    cashProportion[6]  findWorstP[4,6]  -1.4766686355581810e-01
    cashProportion[6]  findWorstP[5,6]  -9.6404126096596932e-02
    cashProportion[6]  findWorstP[6,1]  1.1135237458938813e-01
    cashProportion[6]  findWorstP[6,2]  1.1135237458938813e-01
    cashProportion[6]  findWorstP[6,3]  1.1135237458938813e-01
    cashProportion[6]  findWorstP[6,4]  1.1135237458938813e-01
    cashProportion[6]  findWorstP[6,5]  1.1135237458938813e-01
    MARKER    'MARKER'                 'INTORG'
    x[1,1]    allocateEach[1]  1
    x[1,1]    findWorstP[1,2]  5.3440567066521272e-01
    x[1,1]    findWorstP[1,3]  5.3440567066521272e-01
    x[1,1]    findWorstP[1,4]  5.3440567066521272e-01
    x[1,1]    findWorstP[1,5]  5.3440567066521272e-01
    x[1,1]    findWorstP[1,6]  5.3440567066521272e-01
    x[1,1]    findWorstP[2,1]  -3.1033222591362125e-01
    x[1,1]    findWorstP[3,1]  -2.7581714827096160e-01
    x[1,1]    findWorstP[4,1]  -5.2340519787359718e-01
    x[1,1]    findWorstP[5,1]  -3.3187120408753490e-01
    x[1,1]    findWorstP[6,1]  -2.5171204275931186e-01
    x[1,2]    allocateEach[2]  1
    x[1,2]    findWorstP[1,2]  1.7066521264994550e-01
    x[1,2]    findWorstP[1,3]  1.7066521264994550e-01
    x[1,2]    findWorstP[1,4]  1.7066521264994550e-01
    x[1,2]    findWorstP[1,5]  1.7066521264994550e-01
    x[1,2]    findWorstP[1,6]  1.7066521264994550e-01
    x[1,2]    findWorstP[2,1]  -3.2956810631229233e-01
    x[1,2]    findWorstP[3,1]  -2.9618664140217904e-01
    x[1,2]    findWorstP[4,1]  -1.1761665682220911e-01
    x[1,2]    findWorstP[5,1]  -9.1391111539573883e-02
    x[1,2]    findWorstP[6,1]  -2.2966427259061298e-01
    x[1,3]    allocateEach[3]  1
    x[1,3]    findWorstP[1,2]  1.8587786259541986e-01
    x[1,3]    findWorstP[1,3]  1.8587786259541986e-01
    x[1,3]    findWorstP[1,4]  1.8587786259541986e-01
    x[1,3]    findWorstP[1,5]  1.8587786259541986e-01
    x[1,3]    findWorstP[1,6]  1.8587786259541986e-01
    x[1,3]    findWorstP[2,1]  -2.9365448504983388e-01
    x[1,3]    findWorstP[3,1]  -3.0956892468024633e-01
    x[1,3]    findWorstP[4,1]  -2.1131128174837568e-01
    x[1,3]    findWorstP[5,1]  -4.8033355827629420e-01
    x[1,3]    findWorstP[6,1]  -4.0727131006068706e-01
    x[2,1]    allocateEach[1]  1
    x[2,1]    findWorstP[1,2]  -5.3440567066521272e-01
    x[2,1]    findWorstP[2,1]  3.1033222591362125e-01
    x[2,1]    findWorstP[2,3]  3.1033222591362125e-01
    x[2,1]    findWorstP[2,4]  3.1033222591362125e-01
    x[2,1]    findWorstP[2,5]  3.1033222591362125e-01
    x[2,1]    findWorstP[2,6]  3.1033222591362125e-01
    x[2,1]    findWorstP[3,2]  -2.7581714827096160e-01
    x[2,1]    findWorstP[4,2]  -5.2340519787359718e-01
    x[2,1]    findWorstP[5,2]  -3.3187120408753490e-01
    x[2,1]    findWorstP[6,2]  -2.5171204275931186e-01
    x[2,2]    allocateEach[2]  1
    x[2,2]    findWorstP[1,2]  -1.7066521264994550e-01
    x[2,2]    findWorstP[2,1]  3.2956810631229233e-01
    x[2,2]    findWorstP[2,3]  3.2956810631229233e-01
    x[2,2]    findWorstP[2,4]  3.2956810631229233e-01
    x[2,2]    findWorstP[2,5]  3.2956810631229233e-01
    x[2,2]    findWorstP[2,6]  3.2956810631229233e-01
    x[2,2]    findWorstP[3,2]  -2.9618664140217904e-01
    x[2,2]    findWorstP[4,2]  -1.1761665682220911e-01
    x[2,2]    findWorstP[5,2]  -9.1391111539573883e-02
    x[2,2]    findWorstP[6,2]  -2.2966427259061298e-01
    x[2,3]    allocateEach[3]  1
    x[2,3]    findWorstP[1,2]  -1.8587786259541986e-01
    x[2,3]    findWorstP[2,1]  2.9365448504983388e-01
    x[2,3]    findWorstP[2,3]  2.9365448504983388e-01
    x[2,3]    findWorstP[2,4]  2.9365448504983388e-01
    x[2,3]    findWorstP[2,5]  2.9365448504983388e-01
    x[2,3]    findWorstP[2,6]  2.9365448504983388e-01
    x[2,3]    findWorstP[3,2]  -3.0956892468024633e-01
    x[2,3]    findWorstP[4,2]  -2.1131128174837568e-01
    x[2,3]    findWorstP[5,2]  -4.8033355827629420e-01
    x[2,3]    findWorstP[6,2]  -4.0727131006068706e-01
    x[3,1]    allocateEach[1]  1
    x[3,1]    findWorstP[1,3]  -5.3440567066521272e-01
    x[3,1]    findWorstP[2,3]  -3.1033222591362125e-01
    x[3,1]    findWorstP[3,1]  2.7581714827096160e-01
    x[3,1]    findWorstP[3,2]  2.7581714827096160e-01
    x[3,1]    findWorstP[3,4]  2.7581714827096160e-01
    x[3,1]    findWorstP[3,5]  2.7581714827096160e-01
    x[3,1]    findWorstP[3,6]  2.7581714827096160e-01
    x[3,1]    findWorstP[4,3]  -5.2340519787359718e-01
    x[3,1]    findWorstP[5,3]  -3.3187120408753490e-01
    x[3,1]    findWorstP[6,3]  -2.5171204275931186e-01
    x[3,2]    allocateEach[2]  1
    x[3,2]    findWorstP[1,3]  -1.7066521264994550e-01
    x[3,2]    findWorstP[2,3]  -3.2956810631229233e-01
    x[3,2]    findWorstP[3,1]  2.9618664140217904e-01
    x[3,2]    findWorstP[3,2]  2.9618664140217904e-01
    x[3,2]    findWorstP[3,4]  2.9618664140217904e-01
    x[3,2]    findWorstP[3,5]  2.9618664140217904e-01
    x[3,2]    findWorstP[3,6]  2.9618664140217904e-01
    x[3,2]    findWorstP[4,3]  -1.1761665682220911e-01
    x[3,2]    findWorstP[5,3]  -9.1391111539573883e-02
    x[3,2]    findWorstP[6,3]  -2.2966427259061298e-01
    x[3,3]    allocateEach[3]  1
    x[3,3]    findWorstP[1,3]  -1.8587786259541986e-01
    x[3,3]    findWorstP[2,3]  -2.9365448504983388e-01
    x[3,3]    findWorstP[3,1]  3.0956892468024633e-01
    x[3,3]    findWorstP[3,2]  3.0956892468024633e-01
    x[3,3]    findWorstP[3,4]  3.0956892468024633e-01
    x[3,3]    findWorstP[3,5]  3.0956892468024633e-01
    x[3,3]    findWorstP[3,6]  3.0956892468024633e-01
    x[3,3]    findWorstP[4,3]  -2.1131128174837568e-01
    x[3,3]    findWorstP[5,3]  -4.8033355827629420e-01
    x[3,3]    findWorstP[6,3]  -4.0727131006068706e-01
    x[4,1]    allocateEach[1]  1
    x[4,1]    findWorstP[1,4]  -5.3440567066521272e-01
    x[4,1]    findWorstP[2,4]  -3.1033222591362125e-01
    x[4,1]    findWorstP[3,4]  -2.7581714827096160e-01
    x[4,1]    findWorstP[4,1]  5.2340519787359718e-01
    x[4,1]    findWorstP[4,2]  5.2340519787359718e-01
    x[4,1]    findWorstP[4,3]  5.2340519787359718e-01
    x[4,1]    findWorstP[4,5]  5.2340519787359718e-01
    x[4,1]    findWorstP[4,6]  5.2340519787359718e-01
    x[4,1]    findWorstP[5,4]  -3.3187120408753490e-01
    x[4,1]    findWorstP[6,4]  -2.5171204275931186e-01
    x[4,2]    allocateEach[2]  1
    x[4,2]    findWorstP[1,4]  -1.7066521264994550e-01
    x[4,2]    findWorstP[2,4]  -3.2956810631229233e-01
    x[4,2]    findWorstP[3,4]  -2.9618664140217904e-01
    x[4,2]    findWorstP[4,1]  1.1761665682220911e-01
    x[4,2]    findWorstP[4,2]  1.1761665682220911e-01
    x[4,2]    findWorstP[4,3]  1.1761665682220911e-01
    x[4,2]    findWorstP[4,5]  1.1761665682220911e-01
    x[4,2]    findWorstP[4,6]  1.1761665682220911e-01
    x[4,2]    findWorstP[5,4]  -9.1391111539573883e-02
    x[4,2]    findWorstP[6,4]  -2.2966427259061298e-01
    x[4,3]    allocateEach[3]  1
    x[4,3]    findWorstP[1,4]  -1.8587786259541986e-01
    x[4,3]    findWorstP[2,4]  -2.9365448504983388e-01
    x[4,3]    findWorstP[3,4]  -3.0956892468024633e-01
    x[4,3]    findWorstP[4,1]  2.1131128174837568e-01
    x[4,3]    findWorstP[4,2]  2.1131128174837568e-01
    x[4,3]    findWorstP[4,3]  2.1131128174837568e-01
    x[4,3]    findWorstP[4,5]  2.1131128174837568e-01
    x[4,3]    findWorstP[4,6]  2.1131128174837568e-01
    x[4,3]    findWorstP[5,4]  -4.8033355827629420e-01
    x[4,3]    findWorstP[6,4]  -4.0727131006068706e-01
    x[5,1]    allocateEach[1]  1
    x[5,1]    findWorstP[1,5]  -5.3440567066521272e-01
    x[5,1]    findWorstP[2,5]  -3.1033222591362125e-01
    x[5,1]    findWorstP[3,5]  -2.7581714827096160e-01
    x[5,1]    findWorstP[4,5]  -5.2340519787359718e-01
    x[5,1]    findWorstP[5,1]  3.3187120408753490e-01
    x[5,1]    findWorstP[5,2]  3.3187120408753490e-01
    x[5,1]    findWorstP[5,3]  3.3187120408753490e-01
    x[5,1]    findWorstP[5,4]  3.3187120408753490e-01
    x[5,1]    findWorstP[5,6]  3.3187120408753490e-01
    x[5,1]    findWorstP[6,5]  -2.5171204275931186e-01
    x[5,2]    allocateEach[2]  1
    x[5,2]    findWorstP[1,5]  -1.7066521264994550e-01
    x[5,2]    findWorstP[2,5]  -3.2956810631229233e-01
    x[5,2]    findWorstP[3,5]  -2.9618664140217904e-01
    x[5,2]    findWorstP[4,5]  -1.1761665682220911e-01
    x[5,2]    findWorstP[5,1]  9.1391111539573883e-02
    x[5,2]    findWorstP[5,2]  9.1391111539573883e-02
    x[5,2]    findWorstP[5,3]  9.1391111539573883e-02
    x[5,2]    findWorstP[5,4]  9.1391111539573883e-02
    x[5,2]    findWorstP[5,6]  9.1391111539573883e-02
    x[5,2]    findWorstP[6,5]  -2.2966427259061298e-01
    x[5,3]    allocateEach[3]  1
    x[5,3]    findWorstP[1,5]  -1.8587786259541986e-01
    x[5,3]    findWorstP[2,5]  -2.9365448504983388e-01
    x[5,3]    findWorstP[3,5]  -3.0956892468024633e-01
    x[5,3]    findWorstP[4,5]  -2.1131128174837568e-01
    x[5,3]    findWorstP[5,1]  4.8033355827629420e-01
    x[5,3]    findWorstP[5,2]  4.8033355827629420e-01
    x[5,3]    findWorstP[5,3]  4.8033355827629420e-01
    x[5,3]    findWorstP[5,4]  4.8033355827629420e-01
    x[5,3]    findWorstP[5,6]  4.8033355827629420e-01
    x[5,3]    findWorstP[6,5]  -4.0727131006068706e-01
    x[6,1]    allocateEach[1]  1
    x[6,1]    findWorstP[1,6]  -5.3440567066521272e-01
    x[6,1]    findWorstP[2,6]  -3.1033222591362125e-01
    x[6,1]    findWorstP[3,6]  -2.7581714827096160e-01
    x[6,1]    findWorstP[4,6]  -5.2340519787359718e-01
    x[6,1]    findWorstP[5,6]  -3.3187120408753490e-01
    x[6,1]    findWorstP[6,1]  2.5171204275931186e-01
    x[6,1]    findWorstP[6,2]  2.5171204275931186e-01
    x[6,1]    findWorstP[6,3]  2.5171204275931186e-01
    x[6,1]    findWorstP[6,4]  2.5171204275931186e-01
    x[6,1]    findWorstP[6,5]  2.5171204275931186e-01
    x[6,2]    allocateEach[2]  1
    x[6,2]    findWorstP[1,6]  -1.7066521264994550e-01
    x[6,2]    findWorstP[2,6]  -3.2956810631229233e-01
    x[6,2]    findWorstP[3,6]  -2.9618664140217904e-01
    x[6,2]    findWorstP[4,6]  -1.1761665682220911e-01
    x[6,2]    findWorstP[5,6]  -9.1391111539573883e-02
    x[6,2]    findWorstP[6,1]  2.2966427259061298e-01
    x[6,2]    findWorstP[6,2]  2.2966427259061298e-01
    x[6,2]    findWorstP[6,3]  2.2966427259061298e-01
    x[6,2]    findWorstP[6,4]  2.2966427259061298e-01
    x[6,2]    findWorstP[6,5]  2.2966427259061298e-01
    x[6,3]    allocateEach[3]  1
    x[6,3]    findWorstP[1,6]  -1.8587786259541986e-01
    x[6,3]    findWorstP[2,6]  -2.9365448504983388e-01
    x[6,3]    findWorstP[3,6]  -3.0956892468024633e-01
    x[6,3]    findWorstP[4,6]  -2.1131128174837568e-01
    x[6,3]    findWorstP[5,6]  -4.8033355827629420e-01
    x[6,3]    findWorstP[6,1]  4.0727131006068706e-01
    x[6,3]    findWorstP[6,2]  4.0727131006068706e-01
    x[6,3]    findWorstP[6,3]  4.0727131006068706e-01
    x[6,3]    findWorstP[6,4]  4.0727131006068706e-01
    x[6,3]    findWorstP[6,5]  4.0727131006068706e-01
    MARKER    'MARKER'                 'INTEND'
RHS
    RHS1      allocateEach[1]  1
    RHS1      allocateEach[2]  1
    RHS1      allocateEach[3]  1
    RHS1      allocateAllCash  1
BOUNDS
 UP BND1      z         1
 MI BND1      cashProportion[1]
 UP BND1      cashProportion[1]  1
 MI BND1      cashProportion[2]
 UP BND1      cashProportion[2]  1
 MI BND1      cashProportion[3]
 UP BND1      cashProportion[3]  1
 MI BND1      cashProportion[4]
 UP BND1      cashProportion[4]  1
 MI BND1      cashProportion[5]
 UP BND1      cashProportion[5]  1
 MI BND1      cashProportion[6]
 UP BND1      cashProportion[6]  1
 BV BND1      x[1,1]  
 BV BND1      x[1,2]  
 BV BND1      x[1,3]  
 BV BND1      x[2,1]  
 BV BND1      x[2,2]  
 BV BND1      x[2,3]  
 BV BND1      x[3,1]  
 BV BND1      x[3,2]  
 BV BND1      x[3,3]  
 BV BND1      x[4,1]  
 BV BND1      x[4,2]  
 BV BND1      x[4,3]  
 BV BND1      x[5,1]  
 BV BND1      x[5,2]  
 BV BND1      x[5,3]  
 BV BND1      x[6,1]  
 BV BND1      x[6,2]  
 BV BND1      x[6,3]  
ENDATA
